;test regex echo *.gz | sed -r 's/^([^.]*)(\.gz){2,}$/mv -v & \1\2/e'
(declare-const X String)
(assert (str.in_re X (re.union (re.++ (str.to_re "e") (re.++ (str.to_re "c") (re.++ (str.to_re "h") (re.++ (str.to_re "o") (re.++ (re.* (str.to_re " ")) (re.++ (re.diff re.allchar (str.to_re "\n")) (re.++ (str.to_re "g") (re.++ (str.to_re "z") (str.to_re " "))))))))) (re.++ (re.++ (re.++ (str.to_re " ") (re.++ (str.to_re "s") (re.++ (str.to_re "e") (re.++ (str.to_re "d") (re.++ (str.to_re " ") (re.++ (str.to_re "-") (re.++ (str.to_re "r") (re.++ (str.to_re " ") (re.++ (str.to_re "\u{27}") (re.++ (str.to_re "s") (str.to_re "/"))))))))))) (re.++ (str.to_re "") (re.++ (re.* (re.diff re.allchar (str.to_re "."))) (re.++ (re.* (re.++ (str.to_re ".") (re.++ (str.to_re "g") (str.to_re "z")))) ((_ re.loop 2 2) (re.++ (str.to_re ".") (re.++ (str.to_re "g") (str.to_re "z")))))))) (re.++ (str.to_re "") (re.++ (str.to_re "/") (re.++ (str.to_re "m") (re.++ (str.to_re "v") (re.++ (str.to_re " ") (re.++ (str.to_re "-") (re.++ (str.to_re "v") (re.++ (str.to_re " ") (re.++ (str.to_re "&") (re.++ (str.to_re " ") (re.++ (_ re.reference 1) (re.++ (_ re.reference 2) (re.++ (str.to_re "/") (re.++ (str.to_re "e") (str.to_re "\u{27}")))))))))))))))))))
; sanitize danger characters:  < > ' " &
(assert (not (str.in_re X (re.++ re.all (re.union (str.to_re "\u{3c}") (str.to_re "\u{3e}") (str.to_re "\u{27}") (str.to_re "\u{22}") (str.to_re "\u{26}")) re.all))))
(assert (< 9 (str.len X)))
(check-sat)
(get-model)